15 7 3 12 16 9 13 17 4 2 1 19 8 11 10 5 0 18 14 6  
15 7 3 16 12 17 13 14 4 2 10 8 1 5 18 0 19 9 11 6  
15 7 3 12 16 17 13 4 1 19 2 10 8 9 5 11 18 0 14 6  
15 7 3 12 16 17 10 4 8 1 19 2 9 13 11 5 18 0 14 6  
15 7 3 17 16 12 13 14 4 5 2 0 18 8 1 10 19 11 6 9  
15 7 3 16 9 12 13 17 4 2 10 8 1 5 19 11 18 0 14 6  
15 7 3 17 16 12 13 4 2 8 1 19 10 9 5 11 18 0 14 6  
15 7 3 12 13 4 17 16 10 8 1 19 9 2 5 11 18 0 14 6  
15 7 3 16 17 12 13 2 10 8 1 19 4 9 5 11 18 0 14 6  
15 7 3 12 16 9 13 17 4 2 1 19 8 10 11 5 18 0 14 6  
15 7 3 16 12 17 13 14 4 2 5 10 1 8 18 0 19 11 6 9  
15 7 3 16 12 17 10 14 4 2 5 13 1 8 18 0 19 11 6 9  
15 7 3 16 17 12 8 10 1 19 4 2 13 9 5 11 18 0 14 6  
15 7 3 16 12 17 13 14 4 2 5 10 1 9 18 0 19 11 6 8  
15 7 3 16 17 12 8 10 1 19 4 2 13 9 11 5 18 0 14 6  
15 7 3 16 17 12 13 4 8 1 10 19 9 2 11 5 18 0 14 6  
15 7 3 16 12 9 13 17 4 2 1 19 8 11 10 18 5 0 14 6  
15 7 3 16 9 12 13 17 4 2 10 8 1 19 11 5 18 0 14 6  
15 7 3 12 13 4 16 17 0 2 1 19 10 8 11 5 18 14 9 6  
15 7 3 12 13 9 16 17 4 2 1 19 8 11 10 5 18 0 14 6  
15 7 3 16 17 12 10 4 8 1 19 2 13 11 18 9 5 0 14 6  
15 7 3 17 13 4 16 12 10 8 1 19 9 2 5 11 18 0 14 6  
15 7 3 16 12 17 13 4 10 8 1 19 9 2 11 5 18 0 14 6  
